40
1 0 1
2 0 4
2 1 1
3 0 1
3 1 4
3 2 5
4 0 4
4 1 4
4 2 1
4 3 2
5 0 1
5 1 3
5 2 4
5 3 2
5 4 1
6 0 2
6 1 1
6 2 4
6 3 2
6 4 5
6 5 1
7 0 2
7 1 3
7 2 2
7 3 4
7 4 4
7 5 5
7 6 5
8 0 5
8 1 3
8 2 1
8 3 2
8 4 3
8 5 1
8 6 2
8 7 1
9 0 4
9 1 5
9 2 3
9 3 2
9 4 3
9 5 5
9 6 2
9 7 3
9 8 4
10 0 4
10 1 5
10 2 3
10 3 5
10 4 3
10 5 5
10 6 3
10 7 2
10 8 3
10 9 4
11 0 1
11 1 4
11 2 1
11 3 4
11 4 1
11 5 1
11 6 1
11 7 3
11 8 2
11 9 1
11 10 4
12 0 2
12 1 4
12 2 2
12 3 3
12 4 1
12 5 2
12 6 3
12 7 5
12 8 1
12 9 1
12 10 2
12 11 4
13 0 5
13 1 4
13 2 5
13 3 1
13 4 1
13 5 1
13 6 2
13 7 3
13 8 3
13 9 3
13 10 1
13 11 2
13 12 4
14 0 2
14 1 3
14 2 1
14 3 4
14 4 5
14 5 1
14 6 3
14 7 2
14 8 4
14 9 1
14 10 5
14 11 5
14 12 1
14 13 5
15 0 1
15 1 3
15 2 1
15 3 4
15 4 3
15 5 4
15 6 5
15 7 3
15 8 1
15 9 5
15 10 1
15 11 4
15 12 2
15 13 3
15 14 1
16 0 2
16 1 1
16 2 5
16 3 2
16 4 2
16 5 3
16 6 4
16 7 1
16 8 2
16 9 3
16 10 3
16 11 4
16 12 3
16 13 4
16 14 2
16 15 4
17 0 1
17 1 4
17 2 2
17 3 3
17 4 2
17 5 4
17 6 1
17 7 2
17 8 1
17 9 1
17 10 5
17 11 4
17 12 4
17 13 4
17 14 2
17 15 5
17 16 1
18 0 4
18 1 1
18 2 1
18 3 3
18 4 5
18 5 4
18 6 4
18 7 5
18 8 1
18 9 2
18 10 2
18 11 2
18 12 1
18 13 4
18 14 5
18 15 4
18 16 4
18 17 5
19 0 5
19 1 2
19 2 5
19 3 2
19 4 3
19 5 3
19 6 1
19 7 1
19 8 4
19 9 4
19 10 4
19 11 5
19 12 4
19 13 3
19 14 5
19 15 5
19 16 3
19 17 2
19 18 3
20 0 5
20 1 3
20 2 5
20 3 5
20 4 3
20 5 3
20 6 1
20 7 4
20 8 4
20 9 2
20 10 3
20 11 4
20 12 5
20 13 5
20 14 1
20 15 5
20 16 1
20 17 4
20 18 4
20 19 3
21 0 4
21 1 5
21 2 1
21 3 2
21 4 3
21 5 4
21 6 2
21 7 2
21 8 4
21 9 4
21 10 1
21 11 5
21 12 4
21 13 5
21 14 4
21 15 4
21 16 2
21 17 1
21 18 2
21 19 3
21 20 1
22 0 3
22 1 1
22 2 4
22 3 3
22 4 2
22 5 5
22 6 3
22 7 3
22 8 1
22 9 4
22 10 3
22 11 3
22 12 5
22 13 5
22 14 1
22 15 3
22 16 1
22 17 5
22 18 4
22 19 4
22 20 5
22 21 3
23 0 1
23 1 1
23 2 4
23 3 5
23 4 3
23 5 1
23 6 4
23 7 1
23 8 1
23 9 1
23 10 4
23 11 1
23 12 4
23 13 1
23 14 2
23 15 3
23 16 5
23 17 3
23 18 5
23 19 1
23 20 2
23 21 3
23 22 1
24 0 1
24 1 4
24 2 4
24 3 3
24 4 4
24 5 3
24 6 2
24 7 3
24 8 4
24 9 2
24 10 4
24 11 3
24 12 3
24 13 4
24 14 2
24 15 5
24 16 2
24 17 2
24 18 4
24 19 3
24 20 5
24 21 2
24 22 3
24 23 1
25 0 1
25 1 1
25 2 1
25 3 5
25 4 1
25 5 2
25 6 4
25 7 4
25 8 5
25 9 2
25 10 2
25 11 5
25 12 5
25 13 4
25 14 3
25 15 1
25 16 4
25 17 4
25 18 2
25 19 2
25 20 3
25 21 1
25 22 4
25 23 4
25 24 2
26 0 4
26 1 4
26 2 2
26 3 2
26 4 2
26 5 1
26 6 2
26 7 3
26 8 5
26 9 2
26 10 1
26 11 1
26 12 5
26 13 1
26 14 5
26 15 3
26 16 3
26 17 1
26 18 1
26 19 2
26 20 3
26 21 2
26 22 1
26 23 5
26 24 1
26 25 5
27 0 1
27 1 5
27 2 5
27 3 2
27 4 3
27 5 3
27 6 1
27 7 3
27 8 5
27 9 2
27 10 1
27 11 4
27 12 1
27 13 1
27 14 5
27 15 1
27 16 4
27 17 2
27 18 4
27 19 3
27 20 5
27 21 4
27 22 3
27 23 2
27 24 4
27 25 5
27 26 1
28 0 3
28 1 2
28 2 3
28 3 3
28 4 4
28 5 3
28 6 5
28 7 3
28 8 3
28 9 5
28 10 1
28 11 5
28 12 3
28 13 3
28 14 2
28 15 5
28 16 5
28 17 1
28 18 4
28 19 4
28 20 1
28 21 1
28 22 4
28 23 2
28 24 1
28 25 1
28 26 4
28 27 5
29 0 1
29 1 3
29 2 5
29 3 4
29 4 5
29 5 2
29 6 2
29 7 3
29 8 2
29 9 1
29 10 4
29 11 4
29 12 1
29 13 2
29 14 4
29 15 2
29 16 1
29 17 5
29 18 2
29 19 5
29 20 1
29 21 1
29 22 1
29 23 5
29 24 4
29 25 4
29 26 2
29 27 4
29 28 1
30 0 5
30 1 1
30 2 2
30 3 1
30 4 1
30 5 2
30 6 3
30 7 1
30 8 2
30 9 4
30 10 2
30 11 2
30 12 1
30 13 3
30 14 1
30 15 1
30 16 2
30 17 1
30 18 5
30 19 3
30 20 1
30 21 5
30 22 3
30 23 3
30 24 4
30 25 2
30 26 1
30 27 4
30 28 4
30 29 1
31 0 4
31 1 3
31 2 1
31 3 4
31 4 5
31 5 4
31 6 1
31 7 4
31 8 3
31 9 5
31 10 4
31 11 4
31 12 3
31 13 2
31 14 3
31 15 1
31 16 3
31 17 3
31 18 1
31 19 3
31 20 3
31 21 1
31 22 5
31 23 1
31 24 4
31 25 4
31 26 4
31 27 2
31 28 5
31 29 3
31 30 4
32 0 1
32 1 4
32 2 2
32 3 3
32 4 1
32 5 3
32 6 3
32 7 4
32 8 4
32 9 1
32 10 4
32 11 4
32 12 5
32 13 3
32 14 1
32 15 2
32 16 3
32 17 4
32 18 4
32 19 1
32 20 2
32 21 3
32 22 1
32 23 2
32 24 2
32 25 2
32 26 5
32 27 4
32 28 1
32 29 3
32 30 1
32 31 1
33 0 2
33 1 3
33 2 5
33 3 1
33 4 4
33 5 3
33 6 5
33 7 5
33 8 2
33 9 1
33 10 1
33 11 1
33 12 5
33 13 2
33 14 4
33 15 1
33 16 1
33 17 1
33 18 3
33 19 4
33 20 4
33 21 3
33 22 2
33 23 2
33 24 4
33 25 5
33 26 5
33 27 5
33 28 3
33 29 2
33 30 3
33 31 5
33 32 1
34 0 5
34 1 2
34 2 3
34 3 4
34 4 3
34 5 1
34 6 5
34 7 5
34 8 5
34 9 2
34 10 1
34 11 4
34 12 2
34 13 5
34 14 2
34 15 4
34 16 5
34 17 3
34 18 5
34 19 1
34 20 4
34 21 4
34 22 5
34 23 1
34 24 4
34 25 4
34 26 3
34 27 4
34 28 5
34 29 4
34 30 5
34 31 1
34 32 4
34 33 3
35 0 1
35 1 4
35 2 4
35 3 4
35 4 5
35 5 3
35 6 5
35 7 3
35 8 4
35 9 3
35 10 5
35 11 1
35 12 2
35 13 4
35 14 4
35 15 5
35 16 1
35 17 5
35 18 5
35 19 4
35 20 5
35 21 1
35 22 1
35 23 4
35 24 2
35 25 2
35 26 2
35 27 2
35 28 1
35 29 1
35 30 3
35 31 1
35 32 1
35 33 4
35 34 5
36 0 2
36 1 1
36 2 3
36 3 5
36 4 4
36 5 3
36 6 3
36 7 2
36 8 4
36 9 1
36 10 2
36 11 2
36 12 4
36 13 5
36 14 1
36 15 4
36 16 4
36 17 4
36 18 3
36 19 5
36 20 1
36 21 1
36 22 2
36 23 2
36 24 5
36 25 2
36 26 4
36 27 2
36 28 1
36 29 2
36 30 4
36 31 5
36 32 4
36 33 2
36 34 1
36 35 4
37 0 2
37 1 5
37 2 5
37 3 3
37 4 5
37 5 5
37 6 1
37 7 1
37 8 2
37 9 5
37 10 1
37 11 5
37 12 4
37 13 3
37 14 4
37 15 4
37 16 3
37 17 4
37 18 1
37 19 1
37 20 3
37 21 5
37 22 2
37 23 1
37 24 4
37 25 5
37 26 1
37 27 1
37 28 1
37 29 5
37 30 3
37 31 5
37 32 1
37 33 1
37 34 4
37 35 2
37 36 4
38 0 1
38 1 4
38 2 2
38 3 5
38 4 4
38 5 3
38 6 1
38 7 1
38 8 1
38 9 4
38 10 5
38 11 2
38 12 5
38 13 5
38 14 3
38 15 2
38 16 5
38 17 5
38 18 2
38 19 5
38 20 5
38 21 3
38 22 1
38 23 2
38 24 1
38 25 4
38 26 2
38 27 4
38 28 3
38 29 4
38 30 1
38 31 5
38 32 3
38 33 3
38 34 2
38 35 5
38 36 2
38 37 1
39 0 4
39 1 5
39 2 3
39 3 3
39 4 4
39 5 4
39 6 5
39 7 3
39 8 2
39 9 3
39 10 4
39 11 5
39 12 1
39 13 3
39 14 5
39 15 4
39 16 5
39 17 5
39 18 3
39 19 4
39 20 3
39 21 4
39 22 1
39 23 3
39 24 2
39 25 4
39 26 4
39 27 1
39 28 3
39 29 5
39 30 4
39 31 5
39 32 5
39 33 2
39 34 3
39 35 3
39 36 5
39 37 1
39 38 3
